356
343
353
297
96
0
271
0
266
169
105
262
11
12
70
50
409
67
149
249
56
12
73
254
364
173
54
129
224
259
183
214
77
494
56
208
14
91
192
68
219
332
513
196
0
219
235
10
436
13
54
30
158
252
120
360
138
13
246
30
144
304
118
24
37
29
170
241
356
251
207
260
273
47
44
226
70
110
178
312
54
500
27
248
53
342
184
126
113
260
230
438
14
229
51
178
129
429
138
352
